4 10 18 15 6 17 8 14 11 12 5 9 13 2 16 0 1 7 3 19  
4 15 6 10 8 17 18 14 11 12 5 7 9 13 2 1 0 19 16 3  
4 15 6 10 8 17 18 14 12 5 11 9 19 7 0 1 2 13 16 3  
4 15 18 10 14 6 11 17 1 7 5 9 19 12 0 2 13 16 3 8  
4 10 18 15 6 17 8 14 11 12 5 9 19 16 0 1 7 3 2 13  
4 10 6 15 8 17 18 14 11 12 5 9 19 16 0 1 7 13 2 3  
4 10 18 15 6 17 8 14 11 12 5 9 19 16 0 1 7 3 2 13  
4 10 6 15 8 17 18 14 11 12 5 9 19 0 1 7 2 13 16 3  
4 10 6 18 15 17 14 11 12 5 0 1 7 9 13 2 19 16 3 8  
4 10 6 18 15 17 8 14 11 12 5 9 19 1 0 2 13 16 7 3  
